p tw 40 71
e 0 3
e 0 4
e 0 21
e 0 22
e 0 30
e 2 7
e 2 13
e 2 26
e 2 30
e 2 32
e 2 34
e 3 5
e 3 8
e 3 14
e 3 38
e 4 6
e 4 7
e 4 9
e 4 25
e 4 26
e 4 31
e 5 12
e 5 16
e 5 25
e 5 31
e 5 37
e 6 8
e 6 18
e 6 23
e 7 15
e 7 20
e 7 21
e 7 36
e 8 18
e 9 11
e 9 17
e 9 39
e 10 11
e 10 21
e 10 22
e 10 36
e 11 21
e 11 29
e 12 20
e 12 31
e 14 17
e 14 33
e 15 22
e 16 26
e 16 33
e 16 36
e 17 20
e 17 23
e 17 30
e 18 22
e 19 32
e 20 23
e 20 28
e 23 36
e 24 32
e 24 38
e 26 30
e 27 32
e 27 35
e 28 36
e 29 37
e 32 34
e 32 37
e 33 36
e 34 38
e 36 38
